letting n =  10
letting blocks =  [[1, 8], [1, 9], [2, 1], [2, 2], [2, 3], [2, 6], [2, 9], [3, 4], [3, 5], [3, 10], [4, 6], [4, 9], [5, 1], [5, 4], [5, 5], [5, 7], [6, 5], [7, 5], [7, 6], [8, 2], [8, 3], [9, 8]]
